NAME : OMNETRUN
COMMENT : 524.61
TYPE : CVRP
DIMENSION : 21
EDGE_WEIGHT_TYPE : EUC_2D
CAPACITY : 21
NODE_COORD_SECTION
1 0.107093 -0.77924
2 33.0596 -192.758
3 56.7903 -647.912
4 80.5306 -1149.4
5 248.612 -2460.26
6 201.734 -2942.87
7 160.343 -3328.06
8 177.17 -3798.49
9 65.7957 -4631.5
10 149.124 -5627.75
11 306.533 -4353.49
12 484.487 -5514.02
13 722.831 -521.698
14 519.996 -840.372
15 583.99 -1199.18
16 535.741 -1706.97
17 736.915 -2350.77
18 618.817 -3331.83
19 636.261 -3756.04
20 631.117 -4139.42
21 646.606 -4520.52
DEMAND_SECTION
1 0
2 1
3 1
4 1
5 1
6 1
7 1
8 1
9 1
10 1
11 1
12 1
13 1
14 1
15 1
16 1
17 1
18 1
19 1
20 1
21 1
DEPOT_SECTION
1
-1
EOF
